(set-info :smt-lib-version 2.6)
(set-logic QF_NIA)
(set-info :source |
Generated by: Cristina Borralleras, Daniel Larraz, Albert Oliveras, Enric Rodriguez-Carbonell, Albert Rubio
Generated on: 2017-04-27
Generator: VeryMax
Application: Termination proving
Target solver: barcelogic
|)
(set-info :license "https://creativecommons.org/licenses/by/4.0/")
(set-info :category "industrial")
(set-info :status unknown)
(declare-fun Nl19a_195^01 () Int)
(declare-fun Nl19h_32^01 () Int)
(declare-fun Nl19i_30^01 () Int)
(declare-fun Nl19l_180^01 () Int)
(declare-fun Nl19l_29^01 () Int)
(declare-fun Nl19tp_35^01 () Int)
(declare-fun Nl19a_195^02 () Int)
(declare-fun Nl19h_32^02 () Int)
(declare-fun Nl19i_30^02 () Int)
(declare-fun Nl19l_180^02 () Int)
(declare-fun Nl19l_29^02 () Int)
(declare-fun Nl19tp_35^02 () Int)
(declare-fun lam0n0 () Int)
(declare-fun lam0n1 () Int)
(declare-fun lam0n2 () Int)
(declare-fun lam0n3 () Int)
(declare-fun lam0n4 () Int)
(declare-fun lam0n5 () Int)
(declare-fun lam0n13 () Int)
(declare-fun lam0n14 () Int)
(declare-fun lam0n10 () Int)
(declare-fun lam0n11 () Int)
(declare-fun lam0n12 () Int)
(declare-fun Nl19CT1 () Int)
(declare-fun Nl19CT2 () Int)
(declare-fun lam0n6 () Int)
(declare-fun lam0n7 () Int)
(declare-fun lam0n8 () Int)
(declare-fun lam0n9 () Int)
(declare-fun lam1n0 () Int)
(declare-fun lam1n1 () Int)
(declare-fun lam1n2 () Int)
(declare-fun lam1n3 () Int)
(declare-fun lam1n4 () Int)
(declare-fun lam1n5 () Int)
(declare-fun lam1n13 () Int)
(declare-fun lam1n14 () Int)
(declare-fun lam1n10 () Int)
(declare-fun lam1n11 () Int)
(declare-fun lam1n12 () Int)
(declare-fun lam1n6 () Int)
(declare-fun lam1n7 () Int)
(declare-fun lam1n8 () Int)
(declare-fun lam1n9 () Int)
(declare-fun lam2n0 () Int)
(declare-fun lam2n1 () Int)
(declare-fun lam2n2 () Int)
(declare-fun lam2n3 () Int)
(declare-fun lam2n4 () Int)
(declare-fun lam2n5 () Int)
(declare-fun lam2n13 () Int)
(declare-fun lam2n14 () Int)
(declare-fun lam2n10 () Int)
(declare-fun lam2n11 () Int)
(declare-fun lam2n12 () Int)
(declare-fun lam2n6 () Int)
(declare-fun lam2n7 () Int)
(declare-fun lam2n8 () Int)
(declare-fun lam2n9 () Int)
(declare-fun lam3n0 () Int)
(declare-fun lam3n1 () Int)
(declare-fun lam3n2 () Int)
(declare-fun lam3n3 () Int)
(declare-fun lam3n4 () Int)
(declare-fun lam3n5 () Int)
(declare-fun lam3n24 () Int)
(declare-fun lam3n25 () Int)
(declare-fun lam3n26 () Int)
(declare-fun lam3n27 () Int)
(declare-fun lam3n28 () Int)
(declare-fun lam3n6 () Int)
(declare-fun lam3n7 () Int)
(declare-fun lam3n8 () Int)
(declare-fun lam3n9 () Int)
(declare-fun lam3n10 () Int)
(declare-fun lam3n11 () Int)
(declare-fun lam3n12 () Int)
(declare-fun lam3n13 () Int)
(declare-fun lam3n14 () Int)
(declare-fun lam3n15 () Int)
(declare-fun lam3n16 () Int)
(declare-fun lam3n17 () Int)
(declare-fun lam3n18 () Int)
(declare-fun lam3n19 () Int)
(declare-fun lam3n20 () Int)
(declare-fun lam3n21 () Int)
(declare-fun lam3n22 () Int)
(declare-fun lam3n23 () Int)
(declare-fun lam4n0 () Int)
(declare-fun lam4n1 () Int)
(declare-fun lam4n2 () Int)
(declare-fun lam4n3 () Int)
(declare-fun lam4n4 () Int)
(declare-fun lam4n5 () Int)
(declare-fun lam4n24 () Int)
(declare-fun lam4n25 () Int)
(declare-fun lam4n26 () Int)
(declare-fun lam4n27 () Int)
(declare-fun lam4n28 () Int)
(declare-fun lam4n6 () Int)
(declare-fun lam4n7 () Int)
(declare-fun lam4n8 () Int)
(declare-fun lam4n9 () Int)
(declare-fun lam4n10 () Int)
(declare-fun lam4n11 () Int)
(declare-fun lam4n12 () Int)
(declare-fun lam4n13 () Int)
(declare-fun lam4n14 () Int)
(declare-fun lam4n15 () Int)
(declare-fun lam4n16 () Int)
(declare-fun lam4n17 () Int)
(declare-fun lam4n18 () Int)
(declare-fun lam4n19 () Int)
(declare-fun lam4n20 () Int)
(declare-fun lam4n21 () Int)
(declare-fun lam4n22 () Int)
(declare-fun lam4n23 () Int)
(declare-fun undef8125 () Int)
(declare-fun undef8148 () Int)
(declare-fun undef2565 () Int)
(declare-fun undef2569 () Int)
(declare-fun undef8567 () Int)
(declare-fun tp_35^0 () Int)
(declare-fun undef8598 () Int)
(declare-fun undef2553 () Int)
(declare-fun undef2588 () Int)
(declare-fun undef2803 () Int)
(declare-fun undef8590 () Int)
(declare-fun undef2609 () Int)
(declare-fun undef2752 () Int)
(declare-fun undef2780 () Int)
(declare-fun undef2768 () Int)
(declare-fun undef2807 () Int)
(declare-fun undef2811 () Int)
(declare-fun undef8601 () Int)
(declare-fun undef8112 () Int)
(declare-fun undef8161 () Int)
(declare-fun undef8169 () Int)
(declare-fun undef8170 () Int)
(declare-fun undef8555 () Int)
(declare-fun undef8594 () Int)
(declare-fun l_180^0 () Int)
(declare-fun undef2824 () Int)
(declare-fun a_195^0 () Int)
(declare-fun undef2814 () Int)
(declare-fun lam5n0 () Int)
(declare-fun lam5n1 () Int)
(declare-fun lam5n2 () Int)
(declare-fun lam5n3 () Int)
(declare-fun lam5n4 () Int)
(declare-fun lam5n5 () Int)
(declare-fun lam5n15 () Int)
(declare-fun lam5n16 () Int)
(declare-fun lam5n13 () Int)
(declare-fun lam5n14 () Int)
(declare-fun lam5n6 () Int)
(declare-fun lam5n7 () Int)
(declare-fun lam5n8 () Int)
(declare-fun lam5n9 () Int)
(declare-fun lam5n10 () Int)
(declare-fun lam5n11 () Int)
(declare-fun lam5n12 () Int)
(declare-fun lam6n0 () Int)
(declare-fun lam6n1 () Int)
(declare-fun lam6n2 () Int)
(declare-fun lam6n3 () Int)
(declare-fun lam6n4 () Int)
(declare-fun lam6n5 () Int)
(declare-fun lam6n15 () Int)
(declare-fun lam6n16 () Int)
(declare-fun lam6n13 () Int)
(declare-fun lam6n14 () Int)
(declare-fun lam6n6 () Int)
(declare-fun lam6n7 () Int)
(declare-fun lam6n8 () Int)
(declare-fun lam6n9 () Int)
(declare-fun lam6n10 () Int)
(declare-fun lam6n11 () Int)
(declare-fun lam6n12 () Int)
(assert ( and ( <= ( - 1 ) Nl19a_195^01 ) ( <= Nl19a_195^01 1 ) ( <= ( - 1 ) Nl19h_32^01 ) ( <= Nl19h_32^01 1 ) ( <= ( - 1 ) Nl19i_30^01 ) ( <= Nl19i_30^01 1 ) ( <= ( - 1 ) Nl19l_180^01 ) ( <= Nl19l_180^01 1 ) ( <= ( - 1 ) Nl19l_29^01 ) ( <= Nl19l_29^01 1 ) ( <= ( - 1 ) Nl19tp_35^01 ) ( <= Nl19tp_35^01 1 ) ( <= ( - 1 ) Nl19a_195^02 ) ( <= Nl19a_195^02 1 ) ( <= ( - 1 ) Nl19h_32^02 ) ( <= Nl19h_32^02 1 ) ( <= ( - 1 ) Nl19i_30^02 ) ( <= Nl19i_30^02 1 ) ( <= ( - 1 ) Nl19l_180^02 ) ( <= Nl19l_180^02 1 ) ( <= ( - 1 ) Nl19l_29^02 ) ( <= Nl19l_29^02 1 ) ( <= ( - 1 ) Nl19tp_35^02 ) ( <= Nl19tp_35^02 1 ) ))
(assert ( or ( and ( >= lam0n0 0 ) ( >= lam0n1 0 ) ( >= lam0n2 0 ) ( >= lam0n3 0 ) ( >= lam0n4 0 ) ( >= lam0n5 0 ) ( >= lam0n13 0 ) ( >= lam0n14 0 ) ( > ( + ( * 1 lam0n3 ) ( * 1 lam0n4 ) ( * 2 lam0n5 ) ( * 1 lam0n10 ) ( * 1 lam0n11 ) ( * ( - 1 ) lam0n12 ) ( * Nl19CT1 lam0n13 ) ( * Nl19CT2 lam0n14 ) ( - 1 ) ) 0 ) ( = ( + ( * Nl19a_195^01 lam0n13 ) ( * Nl19a_195^02 lam0n14 ) ) 0 ) ( = ( + ( * Nl19h_32^01 lam0n13 ) ( * Nl19h_32^02 lam0n14 ) ) 0 ) ( = ( + ( * ( - 1 ) lam0n1 ) ( * 1 lam0n3 ) ( * 1 lam0n10 ) ( * Nl19i_30^01 lam0n13 ) ( * Nl19i_30^02 lam0n14 ) ) 0 ) ( = ( + ( * 1 lam0n12 ) ( * Nl19l_180^01 lam0n13 ) ( * Nl19l_180^02 lam0n14 ) ) 0 ) ( = ( + ( * ( - 1 ) lam0n3 ) ( * ( - 1 ) lam0n4 ) ( * Nl19l_29^01 lam0n13 ) ( * Nl19l_29^02 lam0n14 ) ) 0 ) ( = ( + ( * 1 lam0n6 ) ( * Nl19tp_35^01 lam0n13 ) ( * Nl19tp_35^02 lam0n14 ) ) 0 ) ( = ( + ( * 1 lam0n7 ) ( * 1 lam0n8 ) ) 0 ) ( = ( * ( - 1 ) lam0n2 ) 0 ) ( = ( + ( * 1 lam0n2 ) ( * ( - 1 ) lam0n5 ) ) 0 ) ( = ( * ( - 1 ) lam0n7 ) 0 ) ( = ( + ( * ( - 1 ) lam0n8 ) ( * 1 lam0n9 ) ) 0 ) ( = ( * ( - 1 ) lam0n9 ) 0 ) ( = ( + ( * 1 lam0n4 ) ( * 1 lam0n11 ) ) 0 ) ( = ( + ( * ( - 1 ) lam0n10 ) ( * ( - 1 ) lam0n11 ) ) 0 ) ( = ( * ( - 1 ) lam0n6 ) 0 ) ) ( and ( >= lam1n0 0 ) ( >= lam1n1 0 ) ( >= lam1n2 0 ) ( >= lam1n3 0 ) ( >= lam1n4 0 ) ( >= lam1n5 0 ) ( >= lam1n13 0 ) ( >= lam1n14 0 ) ( > ( + ( * 1 lam1n3 ) ( * 1 lam1n4 ) ( * 2 lam1n5 ) ( * 1 lam1n10 ) ( * 1 lam1n11 ) ( * ( - 1 ) lam1n12 ) ( * Nl19CT1 lam1n13 ) ( * Nl19CT2 lam1n14 ) ( - 1 ( + ( + ( + Nl19CT1 ( * Nl19h_32^01 0 ) ) ( * Nl19i_30^01 0 ) ) ( * Nl19tp_35^01 0 ) ) ) ) 0 ) ( = ( + ( * Nl19a_195^01 lam1n13 ) ( * Nl19a_195^02 lam1n14 ) ( - ( + 0 Nl19a_195^01 ) ) ) 0 ) ( = ( + ( * Nl19h_32^01 lam1n13 ) ( * Nl19h_32^02 lam1n14 ) ) 0 ) ( = ( + ( * ( - 1 ) lam1n1 ) ( * 1 lam1n3 ) ( * 1 lam1n10 ) ( * Nl19i_30^01 lam1n13 ) ( * Nl19i_30^02 lam1n14 ) ) 0 ) ( = ( + ( * 1 lam1n12 ) ( * Nl19l_180^01 lam1n13 ) ( * Nl19l_180^02 lam1n14 ) ( - ( + 0 Nl19l_180^01 ) ) ) 0 ) ( = ( + ( * ( - 1 ) lam1n3 ) ( * ( - 1 ) lam1n4 ) ( * Nl19l_29^01 lam1n13 ) ( * Nl19l_29^02 lam1n14 ) ( - ( + 0 Nl19l_29^01 ) ) ) 0 ) ( = ( + ( * 1 lam1n6 ) ( * Nl19tp_35^01 lam1n13 ) ( * Nl19tp_35^02 lam1n14 ) ) 0 ) ( = ( + ( * 1 lam1n7 ) ( * 1 lam1n8 ) ) 0 ) ( = ( * ( - 1 ) lam1n2 ) 0 ) ( = ( + ( * 1 lam1n2 ) ( * ( - 1 ) lam1n5 ) ) 0 ) ( = ( * ( - 1 ) lam1n7 ) 0 ) ( = ( + ( * ( - 1 ) lam1n8 ) ( * 1 lam1n9 ) ) 0 ) ( = ( * ( - 1 ) lam1n9 ) 0 ) ( = ( + ( * 1 lam1n4 ) ( * 1 lam1n11 ) ) 0 ) ( = ( + ( * ( - 1 ) lam1n10 ) ( * ( - 1 ) lam1n11 ) ( - ( + 0 ( * Nl19i_30^01 1 ) ) ) ) 0 ) ( = ( + ( * ( - 1 ) lam1n6 ) ( - ( + 0 ( * Nl19h_32^01 1 ) ) ) ) 0 ) ( = ( - ( + 0 ( * Nl19tp_35^01 1 ) ) ) 0 ) ) ))
(assert ( or ( and ( >= lam0n0 0 ) ( >= lam0n1 0 ) ( >= lam0n2 0 ) ( >= lam0n3 0 ) ( >= lam0n4 0 ) ( >= lam0n5 0 ) ( >= lam0n13 0 ) ( >= lam0n14 0 ) ( > ( + ( * 1 lam0n3 ) ( * 1 lam0n4 ) ( * 2 lam0n5 ) ( * 1 lam0n10 ) ( * 1 lam0n11 ) ( * ( - 1 ) lam0n12 ) ( * Nl19CT1 lam0n13 ) ( * Nl19CT2 lam0n14 ) ( - 1 ) ) 0 ) ( = ( + ( * Nl19a_195^01 lam0n13 ) ( * Nl19a_195^02 lam0n14 ) ) 0 ) ( = ( + ( * Nl19h_32^01 lam0n13 ) ( * Nl19h_32^02 lam0n14 ) ) 0 ) ( = ( + ( * ( - 1 ) lam0n1 ) ( * 1 lam0n3 ) ( * 1 lam0n10 ) ( * Nl19i_30^01 lam0n13 ) ( * Nl19i_30^02 lam0n14 ) ) 0 ) ( = ( + ( * 1 lam0n12 ) ( * Nl19l_180^01 lam0n13 ) ( * Nl19l_180^02 lam0n14 ) ) 0 ) ( = ( + ( * ( - 1 ) lam0n3 ) ( * ( - 1 ) lam0n4 ) ( * Nl19l_29^01 lam0n13 ) ( * Nl19l_29^02 lam0n14 ) ) 0 ) ( = ( + ( * 1 lam0n6 ) ( * Nl19tp_35^01 lam0n13 ) ( * Nl19tp_35^02 lam0n14 ) ) 0 ) ( = ( + ( * 1 lam0n7 ) ( * 1 lam0n8 ) ) 0 ) ( = ( * ( - 1 ) lam0n2 ) 0 ) ( = ( + ( * 1 lam0n2 ) ( * ( - 1 ) lam0n5 ) ) 0 ) ( = ( * ( - 1 ) lam0n7 ) 0 ) ( = ( + ( * ( - 1 ) lam0n8 ) ( * 1 lam0n9 ) ) 0 ) ( = ( * ( - 1 ) lam0n9 ) 0 ) ( = ( + ( * 1 lam0n4 ) ( * 1 lam0n11 ) ) 0 ) ( = ( + ( * ( - 1 ) lam0n10 ) ( * ( - 1 ) lam0n11 ) ) 0 ) ( = ( * ( - 1 ) lam0n6 ) 0 ) ) ( and ( >= lam2n0 0 ) ( >= lam2n1 0 ) ( >= lam2n2 0 ) ( >= lam2n3 0 ) ( >= lam2n4 0 ) ( >= lam2n5 0 ) ( >= lam2n13 0 ) ( >= lam2n14 0 ) ( > ( + ( * 1 lam2n3 ) ( * 1 lam2n4 ) ( * 2 lam2n5 ) ( * 1 lam2n10 ) ( * 1 lam2n11 ) ( * ( - 1 ) lam2n12 ) ( * Nl19CT1 lam2n13 ) ( * Nl19CT2 lam2n14 ) ( - 1 ( + ( + ( + Nl19CT2 ( * Nl19h_32^02 0 ) ) ( * Nl19i_30^02 0 ) ) ( * Nl19tp_35^02 0 ) ) ) ) 0 ) ( = ( + ( * Nl19a_195^01 lam2n13 ) ( * Nl19a_195^02 lam2n14 ) ( - ( + 0 Nl19a_195^02 ) ) ) 0 ) ( = ( + ( * Nl19h_32^01 lam2n13 ) ( * Nl19h_32^02 lam2n14 ) ) 0 ) ( = ( + ( * ( - 1 ) lam2n1 ) ( * 1 lam2n3 ) ( * 1 lam2n10 ) ( * Nl19i_30^01 lam2n13 ) ( * Nl19i_30^02 lam2n14 ) ) 0 ) ( = ( + ( * 1 lam2n12 ) ( * Nl19l_180^01 lam2n13 ) ( * Nl19l_180^02 lam2n14 ) ( - ( + 0 Nl19l_180^02 ) ) ) 0 ) ( = ( + ( * ( - 1 ) lam2n3 ) ( * ( - 1 ) lam2n4 ) ( * Nl19l_29^01 lam2n13 ) ( * Nl19l_29^02 lam2n14 ) ( - ( + 0 Nl19l_29^02 ) ) ) 0 ) ( = ( + ( * 1 lam2n6 ) ( * Nl19tp_35^01 lam2n13 ) ( * Nl19tp_35^02 lam2n14 ) ) 0 ) ( = ( + ( * 1 lam2n7 ) ( * 1 lam2n8 ) ) 0 ) ( = ( * ( - 1 ) lam2n2 ) 0 ) ( = ( + ( * 1 lam2n2 ) ( * ( - 1 ) lam2n5 ) ) 0 ) ( = ( * ( - 1 ) lam2n7 ) 0 ) ( = ( + ( * ( - 1 ) lam2n8 ) ( * 1 lam2n9 ) ) 0 ) ( = ( * ( - 1 ) lam2n9 ) 0 ) ( = ( + ( * 1 lam2n4 ) ( * 1 lam2n11 ) ) 0 ) ( = ( + ( * ( - 1 ) lam2n10 ) ( * ( - 1 ) lam2n11 ) ( - ( + 0 ( * Nl19i_30^02 1 ) ) ) ) 0 ) ( = ( + ( * ( - 1 ) lam2n6 ) ( - ( + 0 ( * Nl19h_32^02 1 ) ) ) ) 0 ) ( = ( - ( + 0 ( * Nl19tp_35^02 1 ) ) ) 0 ) ) ))
(assert ( and ( not ( <= 1 0 ) ) ( <= ( + ( * ( - 1 ) undef8125 ) undef8148 ) 0 ) ( <= ( + 1 undef2565 ( * ( - 1 ) undef2569 ) ) 0 ) ( <= ( + 1 ( * ( - 1 ) undef2569 ) undef8567 ) 0 ) ( <= ( + 2 ( * ( - 1 ) undef2569 ) ) 0 ) ( <= ( + 2 ( * ( - 1 ) undef8148 ) ) 0 ) ( = ( + tp_35^0 ( * ( - 1 ) undef8598 ) ) 0 ) ( = undef2553 0 ) ( = undef2565 0 ) ( = ( + undef2569 ( * ( - 1 ) undef2588 ) ) 0 ) ( = ( + ( * ( - 1 ) undef2569 ) undef2803 ) 0 ) ( = ( + ( * ( - 1 ) undef2569 ) undef8590 ) 0 ) ( = ( + undef2588 ( * ( - 1 ) undef2609 ) ) 0 ) ( = ( + undef2752 ( * ( - 1 ) undef2780 ) ) 0 ) ( = ( + undef2768 ( * ( - 1 ) undef2807 ) ) 0 ) ( = ( + undef2768 ( * ( - 1 ) undef2811 ) ) 0 ) ( = ( + undef2807 ( * ( - 1 ) undef2811 ) ) 0 ) ( = ( + undef2811 ( * ( - 1 ) undef8601 ) ) 0 ) ( = ( + undef8112 ( * ( - 1 ) undef8161 ) ) 0 ) ( = ( + undef8112 ( * ( - 1 ) undef8169 ) ) 0 ) ( = ( + undef8169 ( * ( - 1 ) undef8170 ) ) 0 ) ( = ( + undef8555 ( * ( - 1 ) undef8594 ) ) 0 ) ( = ( + undef8555 ( * ( - 1 ) undef8598 ) ) 0 ) ( = ( + undef8594 ( * ( - 1 ) undef8598 ) ) 0 ) ( = ( + 1 undef2565 ( * ( - 1 ) undef8567 ) ) 0 ) ( = ( + ( - 1 ) l_180^0 ) 0 ) ( = ( + ( - 1 ) undef2824 ( * ( - 1 ) undef8567 ) ) 0 ) ( = ( + 1 ( * ( - 1 ) undef8567 ) ) 0 ) ( = ( + 2 ( * ( - 1 ) undef2780 ) ) 0 ) ( <= ( + ( + ( + ( + ( + Nl19CT1 ( * Nl19h_32^01 0 ) ) ( * Nl19i_30^01 0 ) ) ( * Nl19l_29^01 0 ) ) ( * Nl19tp_35^01 0 ) ) ( * ( + 0 Nl19a_195^01 ) a_195^0 ) ( * ( + 0 Nl19l_180^01 ) l_180^0 ) ( * ( + 0 ( * Nl19l_29^01 1 ) ) undef2569 ) ( * ( + 0 ( * Nl19h_32^01 1 ) ) undef2768 ) ( * ( + 0 ( * Nl19i_30^01 1 ) ) undef2780 ) ( * ( + 0 ( * Nl19tp_35^01 1 ) ) undef2814 ) ) 0 ) ( <= ( + ( + ( + ( + ( + Nl19CT2 ( * Nl19h_32^02 0 ) ) ( * Nl19i_30^02 0 ) ) ( * Nl19l_29^02 0 ) ) ( * Nl19tp_35^02 0 ) ) ( * ( + 0 Nl19a_195^02 ) a_195^0 ) ( * ( + 0 Nl19l_180^02 ) l_180^0 ) ( * ( + 0 ( * Nl19l_29^02 1 ) ) undef2569 ) ( * ( + 0 ( * Nl19h_32^02 1 ) ) undef2768 ) ( * ( + 0 ( * Nl19i_30^02 1 ) ) undef2780 ) ( * ( + 0 ( * Nl19tp_35^02 1 ) ) undef2814 ) ) 0 ) ))
(assert ( or ( or ( and ( >= lam5n0 0 ) ( >= lam5n1 0 ) ( >= lam5n2 0 ) ( >= lam5n3 0 ) ( >= lam5n4 0 ) ( >= lam5n5 0 ) ( >= lam5n15 0 ) ( >= lam5n16 0 ) ( > ( + ( * 2 lam5n4 ) ( * 2 lam5n5 ) ( * 1 lam5n13 ) ( * ( - 1 ) lam5n14 ) ( * Nl19CT1 lam5n15 ) ( * Nl19CT2 lam5n16 ) ( - 1 ) ) 0 ) ( = ( + ( * 1 lam5n6 ) ( * Nl19a_195^01 lam5n15 ) ( * Nl19a_195^02 lam5n16 ) ) 0 ) ( = ( + ( * 1 lam5n7 ) ( * Nl19h_32^01 lam5n15 ) ( * Nl19h_32^02 lam5n16 ) ) 0 ) ( = ( + ( * ( - 1 ) lam5n0 ) ( * ( - 1 ) lam5n1 ) ( * Nl19i_30^01 lam5n15 ) ( * Nl19i_30^02 lam5n16 ) ) 0 ) ( = ( + ( * 1 lam5n14 ) ( * Nl19l_180^01 lam5n15 ) ( * Nl19l_180^02 lam5n16 ) ) 0 ) ( = ( + ( * 1 lam5n1 ) ( * Nl19l_29^01 lam5n15 ) ( * Nl19l_29^02 lam5n16 ) ) 0 ) ( = ( + ( * Nl19tp_35^01 lam5n15 ) ( * Nl19tp_35^02 lam5n16 ) ) 0 ) ( = ( + ( * ( - 1 ) lam5n6 ) ( * 1 lam5n13 ) ) 0 ) ( = ( * ( - 1 ) lam5n13 ) 0 ) ( = ( + ( * 1 lam5n2 ) ( * ( - 1 ) lam5n4 ) ) 0 ) ( = ( + ( * 1 lam5n8 ) ( * 1 lam5n9 ) ) 0 ) ( = ( * ( - 1 ) lam5n2 ) 0 ) ( = ( * ( - 1 ) lam5n9 ) 0 ) ( = ( + ( * 1 lam5n10 ) ( * 1 lam5n11 ) ) 0 ) ( = ( * ( - 1 ) lam5n3 ) 0 ) ( = ( + ( * 1 lam5n3 ) ( * ( - 1 ) lam5n5 ) ) 0 ) ( = ( * ( - 1 ) lam5n10 ) 0 ) ( = ( + ( * ( - 1 ) lam5n11 ) ( * 1 lam5n12 ) ) 0 ) ( = ( + ( * ( - 1 ) lam5n7 ) ( * ( - 1 ) lam5n12 ) ) 0 ) ) ( and ( >= lam6n0 0 ) ( >= lam6n1 0 ) ( >= lam6n2 0 ) ( >= lam6n3 0 ) ( >= lam6n4 0 ) ( >= lam6n5 0 ) ( >= lam6n15 0 ) ( >= lam6n16 0 ) ( > ( + ( * 2 lam6n4 ) ( * 2 lam6n5 ) ( * 1 lam6n13 ) ( * ( - 1 ) lam6n14 ) ( * Nl19CT1 lam6n15 ) ( * Nl19CT2 lam6n16 ) ( - 1 ) ) 0 ) ( = ( + ( * 1 lam6n6 ) ( * Nl19a_195^01 lam6n15 ) ( * Nl19a_195^02 lam6n16 ) ) 0 ) ( = ( + ( * 1 lam6n7 ) ( * Nl19h_32^01 lam6n15 ) ( * Nl19h_32^02 lam6n16 ) ) 0 ) ( = ( + ( * ( - 1 ) lam6n0 ) ( * ( - 1 ) lam6n1 ) ( * Nl19i_30^01 lam6n15 ) ( * Nl19i_30^02 lam6n16 ) ) 0 ) ( = ( + ( * 1 lam6n14 ) ( * Nl19l_180^01 lam6n15 ) ( * Nl19l_180^02 lam6n16 ) ) 0 ) ( = ( + ( * 1 lam6n1 ) ( * Nl19l_29^01 lam6n15 ) ( * Nl19l_29^02 lam6n16 ) ) 0 ) ( = ( + ( * Nl19tp_35^01 lam6n15 ) ( * Nl19tp_35^02 lam6n16 ) ) 0 ) ( = ( + ( * ( - 1 ) lam6n6 ) ( * 1 lam6n13 ) ) 0 ) ( = ( * ( - 1 ) lam6n13 ) 0 ) ( = ( + ( * 1 lam6n2 ) ( * ( - 1 ) lam6n4 ) ) 0 ) ( = ( + ( * 1 lam6n8 ) ( * 1 lam6n9 ) ) 0 ) ( = ( * ( - 1 ) lam6n2 ) 0 ) ( = ( * ( - 1 ) lam6n9 ) 0 ) ( = ( + ( * 1 lam6n10 ) ( * 1 lam6n11 ) ) 0 ) ( = ( * ( - 1 ) lam6n3 ) 0 ) ( = ( + ( * 1 lam6n3 ) ( * ( - 1 ) lam6n5 ) ) 0 ) ( = ( * ( - 1 ) lam6n10 ) 0 ) ( = ( + ( * ( - 1 ) lam6n11 ) ( * 1 lam6n12 ) ) 0 ) ( = ( + ( * ( - 1 ) lam6n7 ) ( * ( - 1 ) lam6n12 ) ) 0 ) ) ) ( and ( and ( and ( >= lam3n0 0 ) ( >= lam3n1 0 ) ( >= lam3n2 0 ) ( >= lam3n3 0 ) ( >= lam3n4 0 ) ( >= lam3n5 0 ) ( > ( + ( * 1 lam3n2 ) ( * 1 lam3n3 ) ( * 2 lam3n4 ) ( * 2 lam3n5 ) ( * 1 lam3n24 ) ( * ( - 1 ) lam3n25 ) ( * ( - 1 ) lam3n26 ) ( * ( - 1 ) lam3n27 ) ( * ( - 2 ) lam3n28 ) ( - 1 ( + ( + ( + ( + Nl19CT1 ( * Nl19h_32^01 0 ) ) ( * Nl19i_30^01 0 ) ) ( * Nl19l_29^01 0 ) ) ( * Nl19tp_35^01 0 ) ) ) ) 0 ) ( = ( - ( + 0 Nl19a_195^01 ) ) 0 ) ( = ( + ( * 1 lam3n25 ) ( - ( + 0 Nl19l_180^01 ) ) ) 0 ) ( = ( * 1 lam3n6 ) 0 ) ( = ( * 1 lam3n7 ) 0 ) ( = ( + ( * 1 lam3n2 ) ( * 1 lam3n8 ) ( * 1 lam3n24 ) ) 0 ) ( = ( + ( * ( - 1 ) lam3n2 ) ( * ( - 1 ) lam3n3 ) ( * ( - 1 ) lam3n4 ) ( * 1 lam3n9 ) ( * 1 lam3n10 ) ( * 1 lam3n11 ) ( - ( + 0 ( * Nl19l_29^01 1 ) ) ) ) 0 ) ( = ( + ( * ( - 1 ) lam3n9 ) ( * 1 lam3n12 ) ) 0 ) ( = ( * ( - 1 ) lam3n12 ) 0 ) ( = ( * 1 lam3n13 ) 0 ) ( = ( + ( * 1 lam3n14 ) ( * 1 lam3n15 ) ( - ( + 0 ( * Nl19h_32^01 1 ) ) ) ) 0 ) ( = ( + ( * ( - 1 ) lam3n13 ) ( * 1 lam3n28 ) ( - ( + 0 ( * Nl19i_30^01 1 ) ) ) ) 0 ) ( = ( * ( - 1 ) lam3n10 ) 0 ) ( = ( + ( * ( - 1 ) lam3n14 ) ( * 1 lam3n16 ) ) 0 ) ( = ( + ( * ( - 1 ) lam3n15 ) ( * ( - 1 ) lam3n16 ) ( * 1 lam3n17 ) ) 0 ) ( = ( - ( + 0 ( * Nl19tp_35^01 1 ) ) ) 0 ) ( = ( * 1 lam3n26 ) 0 ) ( = ( + ( * 1 lam3n18 ) ( * 1 lam3n19 ) ) 0 ) ( = ( * ( - 1 ) lam3n1 ) 0 ) ( = ( + ( * 1 lam3n1 ) ( * ( - 1 ) lam3n5 ) ) 0 ) ( = ( * ( - 1 ) lam3n18 ) 0 ) ( = ( + ( * ( - 1 ) lam3n19 ) ( * 1 lam3n20 ) ) 0 ) ( = ( * ( - 1 ) lam3n20 ) 0 ) ( = ( + ( * 1 lam3n21 ) ( * 1 lam3n22 ) ) 0 ) ( = ( + ( * 1 lam3n3 ) ( * ( - 1 ) lam3n24 ) ( * ( - 1 ) lam3n26 ) ( * 1 lam3n27 ) ) 0 ) ( = ( * ( - 1 ) lam3n11 ) 0 ) ( = ( + ( * ( - 1 ) lam3n21 ) ( * 1 lam3n23 ) ) 0 ) ( = ( + ( * ( - 1 ) lam3n6 ) ( * ( - 1 ) lam3n22 ) ( * ( - 1 ) lam3n23 ) ) 0 ) ( = ( * ( - 1 ) lam3n17 ) 0 ) ) ( and ( >= lam4n0 0 ) ( >= lam4n1 0 ) ( >= lam4n2 0 ) ( >= lam4n3 0 ) ( >= lam4n4 0 ) ( >= lam4n5 0 ) ( > ( + ( * 1 lam4n2 ) ( * 1 lam4n3 ) ( * 2 lam4n4 ) ( * 2 lam4n5 ) ( * 1 lam4n24 ) ( * ( - 1 ) lam4n25 ) ( * ( - 1 ) lam4n26 ) ( * ( - 1 ) lam4n27 ) ( * ( - 2 ) lam4n28 ) ( - 1 ( + ( + ( + ( + Nl19CT2 ( * Nl19h_32^02 0 ) ) ( * Nl19i_30^02 0 ) ) ( * Nl19l_29^02 0 ) ) ( * Nl19tp_35^02 0 ) ) ) ) 0 ) ( = ( - ( + 0 Nl19a_195^02 ) ) 0 ) ( = ( + ( * 1 lam4n25 ) ( - ( + 0 Nl19l_180^02 ) ) ) 0 ) ( = ( * 1 lam4n6 ) 0 ) ( = ( * 1 lam4n7 ) 0 ) ( = ( + ( * 1 lam4n2 ) ( * 1 lam4n8 ) ( * 1 lam4n24 ) ) 0 ) ( = ( + ( * ( - 1 ) lam4n2 ) ( * ( - 1 ) lam4n3 ) ( * ( - 1 ) lam4n4 ) ( * 1 lam4n9 ) ( * 1 lam4n10 ) ( * 1 lam4n11 ) ( - ( + 0 ( * Nl19l_29^02 1 ) ) ) ) 0 ) ( = ( + ( * ( - 1 ) lam4n9 ) ( * 1 lam4n12 ) ) 0 ) ( = ( * ( - 1 ) lam4n12 ) 0 ) ( = ( * 1 lam4n13 ) 0 ) ( = ( + ( * 1 lam4n14 ) ( * 1 lam4n15 ) ( - ( + 0 ( * Nl19h_32^02 1 ) ) ) ) 0 ) ( = ( + ( * ( - 1 ) lam4n13 ) ( * 1 lam4n28 ) ( - ( + 0 ( * Nl19i_30^02 1 ) ) ) ) 0 ) ( = ( * ( - 1 ) lam4n10 ) 0 ) ( = ( + ( * ( - 1 ) lam4n14 ) ( * 1 lam4n16 ) ) 0 ) ( = ( + ( * ( - 1 ) lam4n15 ) ( * ( - 1 ) lam4n16 ) ( * 1 lam4n17 ) ) 0 ) ( = ( - ( + 0 ( * Nl19tp_35^02 1 ) ) ) 0 ) ( = ( * 1 lam4n26 ) 0 ) ( = ( + ( * 1 lam4n18 ) ( * 1 lam4n19 ) ) 0 ) ( = ( * ( - 1 ) lam4n1 ) 0 ) ( = ( + ( * 1 lam4n1 ) ( * ( - 1 ) lam4n5 ) ) 0 ) ( = ( * ( - 1 ) lam4n18 ) 0 ) ( = ( + ( * ( - 1 ) lam4n19 ) ( * 1 lam4n20 ) ) 0 ) ( = ( * ( - 1 ) lam4n20 ) 0 ) ( = ( + ( * 1 lam4n21 ) ( * 1 lam4n22 ) ) 0 ) ( = ( + ( * 1 lam4n3 ) ( * ( - 1 ) lam4n24 ) ( * ( - 1 ) lam4n26 ) ( * 1 lam4n27 ) ) 0 ) ( = ( * ( - 1 ) lam4n11 ) 0 ) ( = ( + ( * ( - 1 ) lam4n21 ) ( * 1 lam4n23 ) ) 0 ) ( = ( + ( * ( - 1 ) lam4n6 ) ( * ( - 1 ) lam4n22 ) ( * ( - 1 ) lam4n23 ) ) 0 ) ( = ( * ( - 1 ) lam4n17 ) 0 ) ) ) ( and ( >= lam0n0 0 ) ( >= lam0n1 0 ) ( >= lam0n2 0 ) ( >= lam0n3 0 ) ( >= lam0n4 0 ) ( >= lam0n5 0 ) ( >= lam0n13 0 ) ( >= lam0n14 0 ) ( > ( + ( * 1 lam0n3 ) ( * 1 lam0n4 ) ( * 2 lam0n5 ) ( * 1 lam0n10 ) ( * 1 lam0n11 ) ( * ( - 1 ) lam0n12 ) ( * Nl19CT1 lam0n13 ) ( * Nl19CT2 lam0n14 ) ( - 1 ) ) 0 ) ( = ( + ( * Nl19a_195^01 lam0n13 ) ( * Nl19a_195^02 lam0n14 ) ) 0 ) ( = ( + ( * Nl19h_32^01 lam0n13 ) ( * Nl19h_32^02 lam0n14 ) ) 0 ) ( = ( + ( * ( - 1 ) lam0n1 ) ( * 1 lam0n3 ) ( * 1 lam0n10 ) ( * Nl19i_30^01 lam0n13 ) ( * Nl19i_30^02 lam0n14 ) ) 0 ) ( = ( + ( * 1 lam0n12 ) ( * Nl19l_180^01 lam0n13 ) ( * Nl19l_180^02 lam0n14 ) ) 0 ) ( = ( + ( * ( - 1 ) lam0n3 ) ( * ( - 1 ) lam0n4 ) ( * Nl19l_29^01 lam0n13 ) ( * Nl19l_29^02 lam0n14 ) ) 0 ) ( = ( + ( * 1 lam0n6 ) ( * Nl19tp_35^01 lam0n13 ) ( * Nl19tp_35^02 lam0n14 ) ) 0 ) ( = ( + ( * 1 lam0n7 ) ( * 1 lam0n8 ) ) 0 ) ( = ( * ( - 1 ) lam0n2 ) 0 ) ( = ( + ( * 1 lam0n2 ) ( * ( - 1 ) lam0n5 ) ) 0 ) ( = ( * ( - 1 ) lam0n7 ) 0 ) ( = ( + ( * ( - 1 ) lam0n8 ) ( * 1 lam0n9 ) ) 0 ) ( = ( * ( - 1 ) lam0n9 ) 0 ) ( = ( + ( * 1 lam0n4 ) ( * 1 lam0n11 ) ) 0 ) ( = ( + ( * ( - 1 ) lam0n10 ) ( * ( - 1 ) lam0n11 ) ) 0 ) ( = ( * ( - 1 ) lam0n6 ) 0 ) ) ) ))
(check-sat)
(exit)
